
set VS:=DDD;
set VT:=SSS;

param:	LAT1	LON1	:=
1	36.89366192	77.24625582
2	39.53105	77.97458
3	38.41619846	78.9933938;


param:	LAT2	LON2:=
1	38.97165	76.50303
2	39.15869	75.51744
3	38.3008	76.61062
4	39.3008	76.61062
5	38.90505	77.01617
6	37.53105	78.47458
7	36.73936	76.04367
8	38.2234	78.26422
9	38.92961195	77.67024462
10	37.6579692	78.18109223;



param: Depot	Client	TW	QTY:=
1	1	5	184	20000
2	1	3	192	20000
3	2	1	204	20000
4	2	2	214	20000
5	3	8	227	20000
6	2	9	235	20000
7	2	9	251	20000
8	3	6	274	20000
9	3	10	277	20000
10	2	4	295	20000
11	2	1	296	20000
12	2	2	300	20000
13	3	6	311	20000
14	1	3	323	20000
15	3	8	341	20000
16	1	7	342	20000
17	1	5	351	20000
18	2	2	370	20000
19	2	9	377	20000
20	3	8	378	20000
21	2	4	381	20000
22	2	1	382	20000
23	3	6	409	20000
24	2	9	415	20000
25	1	7	437	20000
26	1	3	452	20000
27	2	4	473	20000
28	1	7	477	20000
29	2	2	493	20000
30	3	6	539	20000
31	1	7	557	20000
32	2	2	559	20000
33	3	10	609	20000
34	3	10	624	20000
35	2	9	624	20000
36	1	5	646	20000
37	2	2	648	20000
38	2	1	699	20000
39	2	9	701	20000
40	3	6	714	20000
41	2	1	730	20000
42	1	3	738	20000
43	2	2	755	20000
44	3	6	759	20000
45	2	9	765	20000
46	3	8	786	20000
47	2	1	786	20000
48	3	6	790	20000
49	3	10	795	20000
50	2	1	797	20000
;


param:	Capacity	Rent_period	Supplier	Cost	dv:=
1	20000	360	3	3.472222222	0.25
2	20000	360	3	3.472222222	0.25
3	20000	360	2	3.472222222	0.25
4	20000	360	2	3.472222222	0.25
5	20000	360	2	3.472222222	0.25
6	20000	360	2	3.472222222	0.25
7	20000	360	3	3.472222222	0.25
8	20000	720	1	2.191666667	0.2
9	20000	720	1	2.191666667	0.2
10	20000	720	2	2.191666667	0.2
11	20000	720	3	2.191666667	0.2
12	20000	720	2	2.191666667	0.2
13	20000	720	3	2.191666667	0.2
14	20000	720	3	2.191666667	0.2
15	20000	360	3	3.472222222	0.25
16	20000	360	1	3.472222222	0.25
17	20000	360	1	3.472222222	0.25
18	20000	360	1	3.472222222	0.25
19	20000	360	1	3.472222222	0.25
20	20000	360	1	3.472222222	0.25
21	20000	720	2	2.191666667	0.2
22	20000	720	2	2.191666667	0.2
23	20000	720	2	2.191666667	0.2
24	20000	720	2	2.191666667	0.2
25	20000	720	2	2.191666667	0.2
26	20000	720	3	2.191666667	0.2
27	20000	720	3	2.191666667	0.2
28	20000	720	3	2.191666667	0.2
29	20000	720	3	2.191666667	0.2
30	20000	720	1	2.191666667	0.2;

;


